CMD:
./solvers/bin/cadical --plain --no-reduce -t 1600 ./data/cnfs//arbitrated_top_n2_w8_d64_e0/arbitrated_top_n2_w8_d64_e0.81.cnf

c --- [ banner ] -------------------------------------------------------------
c 
c CaDiCaL SAT Solver
c Copyright (c) 2016-2024
c A. Biere, M. Fleury, N. Froleyks, K. Fazekas, F. Pollitt, T. Faller
c JKU Linz, University of Freiburg, TU Wien
c 
c Version 2.1.3 5296d3d2a9bf48c154ab2acb5e44625776d821bf
c g++ (Gentoo 12.3.1_p20230526 p2) 12.3.1 20230526 -Wall -Wextra -O3 -DNDEBUG
c Sat Aug 9 07:26:21 PDT 2025 Linux cedar2.int.cedar.computecanada.ca 5.14.0-362.24.2.el9_3.x86_64 x86_64
c 
c --- [ limit ] --------------------------------------------------------------
c 
c setting time limit to 1600 seconds real time (due to '-t 1600')
c 
c --- [ parsing input ] ------------------------------------------------------
c 
c reading DIMACS file from './data/cnfs//arbitrated_top_n2_w8_d64_e0/arbitrated_top_n2_w8_d64_e0.81.cnf'
c opening file to read './data/cnfs//arbitrated_top_n2_w8_d64_e0/arbitrated_top_n2_w8_d64_e0.81.cnf'
c found 'p cnf 557402 1662797' header
c parsed 1662797 clauses in 0.24 seconds process time
c 
c --- [ options ] ------------------------------------------------------------
c 
c   --compact=false                (different from default 'true')
c   --decompose=false              (different from default 'true')
c   --deduplicate=false            (different from default 'true')
c   --elim=false                   (different from default 'true')
c   --probe=false                  (different from default 'true')
c   --reduce=false                 (different from default 'true')
c   --subsume=false                (different from default 'true')
c   --ternary=false                (different from default 'true')
c   --transred=false               (different from default 'true')
c   --vivify=false                 (different from default 'true')
c 
c --- [ solving ] ------------------------------------------------------------
c 
c time measured in process time since initialization
c 
c  seconds   reductions  redundant   irredundant
c          MB    restarts       trail        variables
c           level   conflicts       glue           remaining
c 
c *  0.24 229  0 0   0    0    0  0% 0 1340275 326704 59%
c {  0.27 234  0 0   0    0    0  0% 0 1340275 326704 59%
c i  0.45 234 1326 0   6  306  291 77% 2 1340275 326301 59%
c i  0.48 234 1292 0   7  320  304 77% 2 1340275 326237 59%
c i  0.49 234 1267 0   7  329  311 76% 2 1340275 326236 59%
c i  0.49 234 1237 0   7  337  317 76% 2 1340275 326125 59%
c i  0.49 234 1219 0   7  342  320 75% 2 1340275 325980 58%
c i  0.49 234 1216 0   7  343  320 75% 2 1340275 325942 58%
c i  0.49 234 1206 0   7  348  322 75% 2 1340275 325776 58%
c i  0.49 234 1189 0   7  353  326 74% 2 1340275 324927 58%
c i  0.59 234 714 0  46  621  579 64% 3 1340275 323941 58%
c i  0.61 234 647 0  50  701  649 63% 3 1340275 323922 58%
c i  0.62 234 644 0  51  704  651 63% 3 1340275 323661 58%
c }  0.76 234 473 0 108 1000  938 58% 4 1340275 323661 58%
c [  0.76 234  0 0 108 1000  938  0% 0 1340275 323661 58%
c i  0.77 234 1232 0 108 1001  938 56% 0 1340275 323660 58%
c O  0.78 234 1197 0 108 1002  939 53% 1 1340275 323660 58%
c ]  0.86 234 1197 0 108 1002  939 53% 1 1340275 323660 58%
c 1  0.86 234 1197 0 108 1002  939 53% 1 1340275 323660 58%
c 
c --- [ result ] -------------------------------------------------------------
c 
s SATISFIABLE
v 1 2 3 4 5 6 7 8 9 10 11 12 13 14 15 16 17 18 19 20 21 22 23 24 25 26 27 28
v 29 30 31 32 33 34 35 36 37 38 39 40 41 42 43 44 45 46 47 48 49 50 51 52 53
v 54 55 56 57 58 59 60 61 62 63 64 65 66 67 68 69 70 71 72 73 74 75 76 77 78
v 79 80 81 82 83 84 85 86 87 88 89 90 91 92 93 94 95 96 97 98 99 100 101 102
v 103 104 105 106 107 108 109 110 111 112 113 114 115 116 117 118 119 120 121
v 122 123 124 125 126 127 128 129 130 131 132 133 134 135 136 137 138 139 140
v 141 142 143 144 145 146 147 148 149 150 151 152 153 154 155 156 157 158 159
v 160 161 162 163 164 165 166 167 168 169 170 171 172 173 174 175 176 177 178
v 179 180 181 182 183 184 185 186 187 188 189 190 191 192 193 194 195 196 197
v 198 199 200 201 202 203 204 205 206 207 208 209 210 211 212 213 214 215 216
v 217 218 219 220 221 222 223 224 225 226 227 228 229 230 231 232 233 234 235
v 236 237 238 239 240 241 242 243 244 245 246 247 248 249 250 251 252 253 254
v 255 256 257 258 259 260 261 262 263 264 265 266 267 268 269 270 271 272 273
v 274 275 276 277 278 279 280 281 282 283 284 285 286 287 288 289 290 291 292
v 293 294 295 296 297 298 299 300 301 302 303 304 305 306 307 308 309 310 311
v 312 313 314 315 316 317 318 319 320 321 322 323 324 325 326 327 328 329 330
v 331 332 333 334 335 336 337 338 339 340 341 342 343 344 345 346 347 348 349
v 350 351 352 353 354 355 356 357 358 359 360 361 362 363 364 365 366 367 368
v 369 370 371 372 373 374 375 376 377 378 379 380 381 382 383 384 385 386 387
v 388 389 390 391 392 393 394 395 396 397 398 399 400 401 402 403 404 405 406
v 407 408 409 410 411 412 413 414 415 416 417 418 419 420 421 422 423 424 425
v 426 427 428 429 430 431 432 433 434 435 436 437 438 439 440 441 442 443 444
v 445 446 447 448 449 450 451 452 453 454 455 456 457 458 459 460 461 462 463
v 464 465 466 467 468 469 470 471 472 473 474 475 476 477 478 479 480 481 482
v 483 484 485 486 487 488 489 490 491 492 493 494 495 496 497 498 499 500 501
v 502 503 504 505 506 507 508 509 510 511 512 513 514 515 516 517 518 519 520
v 521 522 523 524 525 526 527 528 529 530 531 532 533 534 535 536 537 538 539
v 540 541 542 543 544 545 546 547 548 549 550 551 552 553 554 555 556 557 558
v 559 560 561 562 563 564 565 566 567 568 569 570 571 572 573 574 575 576 577
v 578 579 580 581 582 583 584 585 586 587 588 589 590 591 592 593 594 595 596
v 597 598 599 600 601 602 603 604 605 606 607 608 609 610 611 612 613 614 615
... skipped 56998 lines ...
v -556938 -556939 -556940 -556941 -556942 -556943 -556944 -556945 -556946
v -556947 -556948 -556949 -556950 -556951 -556952 -556953 556954 -556955
v 556956 -556957 -556958 -556959 -556960 -556961 -556962 -556963 -556964
v -556965 -556966 -556967 -556968 -556969 -556970 -556971 -556972 -556973
v 556974 -556975 556976 -556977 -556978 -556979 -556980 -556981 -556982
v -556983 -556984 -556985 -556986 -556987 -556988 -556989 -556990 -556991
v -556992 -556993 556994 -556995 556996 -556997 -556998 -556999 -557000
v -557001 -557002 -557003 -557004 -557005 -557006 -557007 -557008 -557009
v -557010 -557011 -557012 -557013 -557014 557015 -557016 557017 -557018
v -557019 -557020 -557021 -557022 -557023 -557024 -557025 -557026 -557027
v -557028 -557029 -557030 -557031 -557032 -557033 -557034 557035 -557036
v 557037 -557038 -557039 -557040 -557041 -557042 -557043 -557044 -557045
v -557046 -557047 -557048 -557049 -557050 -557051 -557052 -557053 -557054
v 557055 -557056 557057 -557058 -557059 -557060 -557061 -557062 -557063
v -557064 -557065 -557066 -557067 -557068 -557069 -557070 -557071 -557072
v -557073 -557074 557075 -557076 557077 -557078 -557079 -557080 -557081
v -557082 -557083 -557084 -557085 -557086 -557087 -557088 -557089 -557090
v -557091 -557092 -557093 -557094 557095 -557096 557097 -557098 -557099
v -557100 -557101 -557102 -557103 -557104 -557105 -557106 -557107 -557108
v -557109 -557110 -557111 -557112 -557113 -557114 557115 -557116 557117
v -557118 -557119 -557120 -557121 -557122 -557123 -557124 -557125 -557126
v -557127 -557128 -557129 -557130 -557131 -557132 -557133 -557134 557135
v -557136 557137 -557138 -557139 -557140 -557141 -557142 -557143 -557144
v -557145 -557146 -557147 -557148 -557149 -557150 -557151 -557152 -557153
v -557154 557155 -557156 557157 -557158 -557159 -557160 -557161 -557162
v -557163 -557164 -557165 -557166 -557167 -557168 -557169 -557170 -557171
v -557172 -557173 -557174 557175 -557176 557177 -557178 -557179 -557180
v -557181 -557182 -557183 -557184 -557185 -557186 -557187 -557188 -557189
v -557190 -557191 -557192 -557193 -557194 -557195 557196 -557197 557198
v -557199 -557200 -557201 -557202 -557203 -557204 -557205 -557206 -557207
v -557208 -557209 -557210 -557211 -557212 -557213 -557214 -557215 557216
v -557217 557218 -557219 -557220 -557221 -557222 -557223 -557224 -557225
v -557226 -557227 -557228 -557229 -557230 -557231 -557232 -557233 -557234
v -557235 557236 -557237 557238 -557239 -557240 -557241 -557242 -557243
v -557244 -557245 -557246 -557247 -557248 -557249 -557250 -557251 -557252
v -557253 -557254 -557255 -557256 557257 -557258 557259 -557260 -557261
v -557262 -557263 -557264 -557265 -557266 -557267 -557268 -557269 -557270
v -557271 -557272 -557273 -557274 -557275 -557276 557277 -557278 557279
v -557280 -557281 -557282 -557283 -557284 -557285 -557286 -557287 -557288
v -557289 -557290 -557291 -557292 -557293 -557294 -557295 -557296 557297
v -557298 557299 -557300 -557301 -557302 -557303 -557304 -557305 -557306
v -557307 -557308 -557309 -557310 -557311 -557312 -557313 -557314 -557315
v -557316 557317 -557318 557319 -557320 -557321 -557322 -557323 -557324
v -557325 -557326 -557327 -557328 -557329 -557330 -557331 -557332 -557333
v -557334 -557335 -557336 557337 -557338 557339 -557340 -557341 -557342
v -557343 -557344 -557345 -557346 -557347 -557348 -557349 -557350 -557351
v -557352 -557353 -557354 -557355 -557356 557357 -557358 557359 -557360
v -557361 -557362 -557363 -557364 -557365 -557366 -557367 -557368 -557369
v -557370 -557371 -557372 -557373 -557374 -557375 -557376 557377 -557378
v 557379 -557380 -557381 -557382 -557383 -557384 -557385 -557386 -557387
v -557388 -557389 -557390 -557391 -557392 -557393 -557394 -557395 -557396
v 557397 -557398 557399 -557400 557401 -557402 0
c 
c --- [ run-time profiling ] -------------------------------------------------
c 
c process time taken by individual solving procedures
c (percentage relative to process time for solving)
c 
c         0.62   99.98% search
c         0.48   78.26% unstable
c         0.24   38.13% parse
c         0.10   15.89% stable
c         0.04    5.81% lucky
c         0.00    0.00% simplify
c   =================================
c         0.62   70.19% solve
c 
c last line shows process time for solving
c (percentage relative to total process time)
c 
c --- [ statistics ] ---------------------------------------------------------
c 
c chronological:               338        33.73 %  of conflicts
c conflicts:                  1002      1617.76    per second
c decisions:                 16819     27154.79    per second
c fixed:                    233727        41.93 %  of all variables
c learned:                     977        97.50 %  per conflict
c learned_lits:              14875       100.00 %  learned literals
c minimized:                     0         0.00 %  learned literals
c shrunken:                   4375        29.41 %  learned literals
c minishrunken:               2811        18.90 %  learned literals
c otfs:                         16         1.60 %  of conflict
c propagations:            4539444         7.33 M  per second
c rephased:                      1      1002.00    interval
c restarts:                    108         9.28    interval
c stabilizing:                   1         0.20 %  of conflicts
c subsumed:                     26         0.00 %  of all clauses
c strengthened:                 16         0.00 %  of all clauses
c 
c seconds are measured in process time for solving
c 
c --- [ resources ] ----------------------------------------------------------
c 
c total process time since initialization:         0.88    seconds
c total real time since initialization:            0.89    seconds
c maximum resident set size of process:          232.35    MB
c 
c --- [ shutting down ] ------------------------------------------------------
c 
c exit 10
